c random assignment satisfied 0/430 clauses
o 430
c flipped 0/100 variables (k=0)
c solution improved by 147 clauses
o 283
c flipped 0/100 variables (k=0)
c solution improved by 20 clauses
o 263
c flipped 0/100 variables (k=0)
c solution improved by 4 clauses
o 259
c flipped 0/100 variables (k=0)
c solution improved by 1 clause
o 258
c flipped 0/100 variables (k=0)
c solution improved by 1 clause
o 257
c flipped 0/100 variables (k=0)
c solution improved by 1 clause
o 256
c flipped 0/100 variables (k=0)
c solution improved by 16 clauses
o 240
c flipped 0/100 variables (k=0)
c solution improved by 1 clause
o 239
c flipped 0/100 variables (k=0)
c solution improved by 60 clauses
o 179
c flipped 0/100 variables (k=0)
c solution improved by 36 clauses
o 143
c flipped 0/100 variables (k=0)
c solution improved by 8 clauses
o 135
c flipped 0/100 variables (k=0)
c solution improved by 1 clause
o 134
c flipped 0/100 variables (k=0)
c solution improved by 1 clause
o 133
c flipped 0/100 variables (k=0)
c solution improved by 1 clause
o 132
c flipped 0/100 variables (k=0)
c solution improved by 3 clauses
o 129
c flipped 0/100 variables (k=0)
c solution improved by 15 clauses
o 114
c flipped 0/100 variables (k=0)
c solution improved by 3 clauses
o 111
c flipped 0/100 variables (k=0)
c solution improved by 4 clauses
o 107
c flipped 0/100 variables (k=0)
c solution improved by 1 clause
o 106
c flipped 0/100 variables (k=0)
c solution improved by 49 clauses
o 57
v 0000101100111011000001000101010100111010000001000100011001110110101101010101100101010010100001100001
c stuck at 373/430 clauses with k=0
s UNKNOWN
